/*********************************************
 * OPL 12.6.0.0 Data
 * Author: AbYosh
 * Creation Date: 4 Nov 2014 at 15:10:13
 *********************************************/

 //num_data_structures = 10;
 num_data_structures = 5;
 num_memory_banks = 4;
 p = 16;
 d = 16;
 
 //s = [60, 40, 35, 25, 30, 40, 35, 45, 50, 60];
 s = [60, 40, 35, 25, 30];
 c = [40, 40, 40, 40];
 //e = [4, 4, 4, 4, 4, 4, 4, 4, 4, 4];
 e = [4, 4, 4, 4, 4];